c
c start with comments
c
p cnf 15 37
-8 8 -13 -12 0
7 8 4 0
8 -5 -13 0
7 -5 -5 -11 -3 0
2 -8 -2 2 0
10 5 13 0
13 -14 -9 0
10 -7 0
3 -3 1 -14 6 -10 0
-5 14 -7 8 13 8 0
-11 11 7 0
-14 -12 -12 0
-5 15 5 2 0
-6 -9 -5 9 14 0
3 -10 6 11 -2 0
13 6 -12 7 -14 -1 0
13 1 -9 0
-4 14 12 8 0
1 -4 0
2 -8 -10 0
-12 4 -13 0
2 8 0
-7 1 12 0
1 6 -11 0
-10 4 1 -6 3 -4 0
-5 11 5 -2 0
12 -10 12 7 0
7 6 7 -3 0
11 3 -11 -11 4 6 0
-3 8 -10 0
5 6 -12 -7 -5 0
-3 -9 15 0
-5 -10 -1 0
4 2 14 10 8 0
15 4 -8 13 0
14 7 6 11 0
9 -9 11 10 0